\ENCODING=ISO-8859-1
\Problem name: ilog.cplex

Minimize
 obj1: - x_0_1 - x_0_2 - x_0_3 + x_0_4 - x_0_5 - x_0_7 - x_0_8 - x_0_9 - x_0_10
       - x_0_11 - x_0_13 - x_0_15 + x_0_16 - x_16_17 - x_16_18 - x_16_19
       - x_16_20 - x_16_21 - x_16_22 - x_0_23 - x_16_23 - x_16_24 - x_16_27
       - x_0_30 + x_0_31 + x_1_2 - x_1_3 - x_1_4 + x_1_5 + x_1_6 + x_1_7
       - x_1_8 - x_1_9 + x_1_11 + x_1_13 - x_1_14 + x_17_18 + x_17_19 - x_17_21
       - x_1_22 + x_17_22 + x_17_23 + x_17_30 - x_1_31 - x_2_3 - x_2_4 + x_2_5
       - x_2_6 + x_2_7 + x_2_8 - x_2_9 - x_2_10 - x_2_17 - x_2_18 + x_2_19
       + x_18_19 - x_18_21 + x_18_22 + x_2_24 + x_18_25 - x_18_26 - x_2_27
       + x_2_29 - x_18_29 + x_2_31 - x_18_31 - x_3_4 - x_3_6 - x_3_8 + x_3_9
       - x_3_10 - x_3_11 - x_3_12 - x_3_14 - x_3_15 + x_3_17 - x_3_18 + x_3_20
       - x_19_20 + x_19_21 + x_3_22 + x_19_25 + x_19_28 - x_4_5 + x_4_6 - x_4_7
       + x_4_8 + x_4_9 + x_4_10 - x_4_13 + x_4_14 + x_4_21 + x_20_21 + x_4_26
       - x_20_27 - x_4_28 + x_20_28 - x_5_6 - x_5_7 + x_5_8 - x_5_9 - x_5_10
       - x_5_12 + x_5_13 + x_5_21 - x_21_22 + x_5_25 + x_5_26 + x_21_26
       + x_5_27 + x_21_28 + x_21_29 - x_6_7 - x_6_8 - x_6_9 - x_6_13 + x_6_14
       - x_6_18 + x_6_19 - x_22_23 - x_22_24 + x_6_25 - x_22_26 - x_22_27
       + x_22_28 - x_22_29 + x_22_30 - x_22_31 - x_7_8 - x_7_9 - x_7_10
       - x_7_13 - x_7_16 - x_7_19 - x_23_24 - x_23_25 - x_23_26 - x_7_27
       - x_23_27 - x_23_28 - x_23_29 - x_23_30 - x_23_31 - x_8_9 - x_8_10
       - x_8_11 - x_8_14 + x_8_15 - x_8_18 - x_8_21 - x_8_25 - x_24_25 - x_8_26
       - x_24_26 - x_24_27 - x_8_29 + x_24_29 - x_8_30 - x_24_30 - x_24_31
       - x_9_10 - x_9_12 + x_9_15 - x_9_22 - x_9_26 - x_25_26 - x_25_27
       + x_25_28 - x_25_29 - x_9_30 - x_25_30 - x_25_31 - x_10_12 + x_10_13
       + x_10_16 - x_10_18 + x_10_19 + x_10_20 - x_10_26 + x_10_27 - x_26_28
       + x_10_29 + x_26_29 + x_10_30 - x_26_30 + x_10_31 - x_26_31 + x_11_12
       - x_11_13 - x_11_14 - x_11_15 - x_11_16 - x_11_18 - x_11_19 - x_11_20
       - x_11_21 - x_11_22 - x_11_23 - x_11_25 + x_11_27 - x_27_29 + x_11_30
       - x_27_30 + x_11_31 - x_27_31 - x_12_13 - x_12_14 - x_12_15 - x_12_16
       - x_12_17 + x_12_18 - x_12_19 - x_12_20 - x_12_22 - x_12_26 - x_12_28
       - x_12_29 - x_28_29 - x_28_30 + x_12_31 + x_28_31 - x_13_15 - x_13_16
       - x_13_17 - x_13_18 + x_13_19 - x_13_21 + x_13_23 + x_13_28 - x_29_30
       - x_29_31 - x_14_15 - x_14_16 - x_14_17 - x_14_18 - x_14_19 - x_14_20
       - x_14_21 + x_14_31 + x_15_16 - x_15_17 - x_15_18 - x_15_19 + x_15_20
       - x_15_21 - x_15_23 + x_15_28 + 166
Subject To
 c1:   x_2_4 + x_2_6 - x_4_6 <= 1
 c2:   x_2_4 + x_2_10 - x_4_10 <= 1
 c3:   x_0_8 + x_0_15 - x_8_15 <= 1
 c4:   x_0_7 - x_0_16 + x_7_16 <= 1
 c5:   x_4_13 - x_4_21 + x_13_21 <= 1
 c6:   - x_4_26 + x_4_28 + x_26_28 <= 1
 c7:   x_22_24 + x_22_29 - x_24_29 <= 1
 c8:   x_0_1 - x_0_31 + x_1_31 <= 1
 c9:   x_22_31 + x_12_22 - x_12_31 <= 1
 c10:  x_0_1 + x_0_2 - x_1_2 <= 1
 c11:  x_1_3 - x_1_6 + x_3_6 <= 1
 c12:  x_0_5 + x_0_8 - x_5_8 <= 1
 c13:  x_0_1 + x_0_13 - x_1_13 <= 1
 c14:  x_0_9 + x_0_15 - x_9_15 <= 1
 c15:  x_16_19 + x_13_16 - x_13_19 <= 1
 c16:  x_16_17 + x_16_22 - x_17_22 <= 1
 c17:  x_16_23 + x_13_16 - x_13_23 <= 1
 c18:  x_5_9 - x_5_26 + x_9_26 <= 1
 c19:  - x_21_26 + x_8_21 + x_8_26 <= 1
 c20:  x_5_7 - x_5_27 + x_7_27 <= 1
 c21:  x_23_25 + x_23_28 - x_25_28 <= 1
 c22:  x_4_13 + x_4_28 - x_13_28 <= 1
 c23:  - x_21_29 + x_8_21 + x_8_29 <= 1
 c24:  x_0_2 + x_0_7 - x_2_7 <= 1
 c25:  x_0_2 + x_0_8 - x_2_8 <= 1
 c26:  - x_10_13 + x_10_18 + x_13_18 <= 1
 c27:  - x_6_14 + x_6_18 + x_14_18 <= 1
 c28:  x_16_18 + x_16_19 - x_18_19 <= 1
 c29:  x_6_7 - x_6_19 + x_7_19 <= 1
 c30:  x_10_12 - x_10_20 + x_12_20 <= 1
 c31:  x_16_18 + x_16_22 - x_18_22 <= 1
 c32:  - x_2_24 + x_2_27 + x_24_27 <= 1
 c33:  - x_18_25 + x_8_18 + x_8_25 <= 1
 c34:  x_6_8 - x_6_25 + x_8_25 <= 1
 c35:  x_2_10 + x_2_27 - x_10_27 <= 1
 c36:  x_2_18 - x_2_29 + x_18_29 <= 1
 c37:  x_18_29 + x_10_18 - x_10_29 <= 1
 c38:  x_8_26 + x_8_29 - x_26_29 <= 1
 c39:  - x_22_30 + x_9_22 + x_9_30 <= 1
 c40:  x_0_10 + x_0_30 - x_10_30 <= 1
 c41:  x_2_18 - x_2_31 + x_18_31 <= 1
 c42:  x_18_31 + x_10_18 - x_10_31 <= 1
 c43:  x_0_3 + x_0_9 - x_3_9 <= 1
 c44:  x_2_3 + x_2_17 - x_3_17 <= 1
 c45:  x_3_11 - x_3_20 + x_11_20 <= 1
 c46:  x_19_20 + x_15_19 - x_15_20 <= 1
 c47:  x_16_19 + x_16_21 - x_19_21 <= 1
 c48:  x_16_27 + x_11_16 - x_11_27 <= 1
 c49:  x_0_11 + x_0_30 - x_11_30 <= 1
 c50:  x_18_31 + x_11_18 - x_11_31 <= 1
 c51:  x_0_3 - x_0_4 + x_3_4 <= 1
 c52:  x_3_8 + x_3_15 - x_8_15 <= 1
 c53:  - x_0_16 + x_0_23 + x_16_23 <= 1
 c54:  x_23_24 + x_23_29 - x_24_29 <= 1
 c55:  x_0_23 - x_0_31 + x_23_31 <= 1
 c56:  - x_1_2 + x_1_9 + x_2_9 <= 1
 c57:  - x_1_7 + x_1_8 + x_7_8 <= 1
 c58:  - x_1_13 + x_1_22 + x_11_13 + x_11_22 <= 2
 c59:  - x_17_18 + x_13_17 + x_13_18 <= 1
 c60:  - x_17_19 + x_12_17 + x_12_19 <= 1
 c61:  x_17_21 - x_17_22 + x_21_22 <= 1
 c62:  - x_17_23 + x_15_17 + x_15_23 <= 1
 c63:  - x_17_30 + x_2_9 + x_2_17 + x_9_30 <= 2
 c64:  x_2_6 - x_2_7 + x_6_7 <= 1
 c65:  x_0_10 + x_0_13 - x_10_13 <= 1
 c66:  x_7_10 + x_7_16 - x_10_16 <= 1
 c67:  x_10_12 - x_10_19 + x_12_19 <= 1
 c68:  - x_18_25 + x_11_18 + x_11_25 <= 1
 c69:  x_2_17 - x_2_29 + x_12_17 + x_12_29 <= 2
 c70:  x_8_10 + x_8_29 - x_10_29 <= 1
 c71:  x_8_10 + x_8_30 - x_10_30 <= 1
 c72:  x_18_26 - x_18_31 + x_26_31 <= 1
 c73:  x_10_26 - x_10_31 + x_26_31 <= 1
 c74:  x_3_6 - x_3_9 + x_6_9 <= 1
 c75:  - x_11_12 + x_11_13 + x_12_13 <= 1
 c76:  x_3_14 - x_3_20 + x_14_20 <= 1
 c77:  - x_19_21 + x_11_19 + x_11_21 <= 1
 c78:  x_8_11 + x_8_30 - x_11_30 <= 1
 c79:  x_22_31 + x_11_22 - x_11_31 <= 1
 c80:  x_3_4 + x_3_6 - x_4_6 <= 1
 c81:  x_4_7 - x_4_9 + x_7_9 <= 1
 c82:  x_3_12 + x_3_18 - x_12_18 <= 1
 c83:  x_18_21 + x_3_4 + x_3_18 - x_4_21 <= 2
 c84:  x_9_12 + x_9_22 - x_12_22 <= 1
 c85:  x_28_29 - x_28_31 + x_29_31 <= 1
 c86:  x_5_6 - x_5_13 + x_6_13 <= 1
 c87:  x_11_13 + x_11_19 - x_13_19 <= 1
 c88:  x_18_21 + x_5_6 - x_5_21 + x_6_18 <= 2
 c89:  x_6_14 - x_6_19 + x_14_19 <= 1
 c90:  x_6_18 - x_6_25 + x_11_18 + x_11_25 <= 2
 c91:  - x_22_28 + x_22_29 + x_28_29 <= 1
 c92:  x_1_14 + x_1_31 - x_14_31 <= 1
 c93:  x_11_15 + x_11_20 - x_15_20 <= 1
 c94:  - x_1_2 + x_1_22 + x_2_9 + x_9_22 <= 2
 c95:  x_1_4 - x_1_5 + x_4_5 <= 1
 c96:  - x_1_6 + x_1_22 + x_6_9 + x_9_22 <= 2
 c97:  - x_1_9 + x_1_22 + x_9_22 <= 1
 c98:  x_17_22 - x_17_23 + x_22_23 <= 1
 c99:  - x_25_28 + x_25_30 + x_28_30 <= 1
 c100: x_17_22 - x_17_30 + x_22_30 <= 1
 c101: x_9_10 + x_9_12 - x_10_12 <= 1
 c102: - x_10_27 + x_10_30 + x_27_30 <= 1
 c103: - x_26_28 + x_26_30 + x_28_30 <= 1
 c104: - x_19_25 + x_25_26 + x_12_19 + x_12_26 <= 2
 c105: x_23_27 + x_11_23 - x_11_27 <= 1
 c106: x_4_5 - x_4_10 + x_5_10 <= 1
 c107: x_4_5 - x_4_14 + x_5_12 + x_12_14 <= 2
 c108: x_12_13 - x_12_18 + x_13_18 <= 1
 c109: - x_20_21 + x_14_20 + x_14_21 <= 1
 c110: x_1_4 + x_1_22 - x_4_26 + x_22_26 <= 2
 c111: x_20_27 - x_20_28 + x_27_30 + x_28_30 <= 2
 c112: - x_28_29 + x_28_30 + x_29_30 <= 1
 c113: x_11_13 + x_11_23 - x_13_23 <= 1
 c114: x_5_12 - x_5_26 + x_12_26 <= 1
 c115: x_11_15 + x_11_16 - x_15_16 <= 1
 c116: - x_1_2 + x_1_3 + x_2_3 <= 1
 c117: x_1_3 - x_1_11 + x_3_11 <= 1
 c118: - x_17_18 + x_14_17 + x_14_18 <= 1
 c119: - x_17_19 + x_15_17 + x_15_19 <= 1
 c120: x_17_23 - x_17_30 + x_23_30 <= 1
 c121: x_7_10 + x_7_13 - x_10_13 <= 1
 c122: - x_18_19 + x_15_18 + x_15_19 <= 1
 c123: x_3_10 + x_3_20 - x_10_20 <= 1
 c124: x_18_26 + x_10_18 - x_10_26 <= 1
 c125: x_24_26 + x_24_31 - x_26_31 <= 1
 c126: x_3_14 - x_3_17 + x_14_17 <= 1
 c127: - x_19_21 + x_15_19 + x_15_21 <= 1
 c128: x_3_11 - x_3_22 + x_11_22 <= 1
 c129: x_23_30 + x_11_23 - x_11_30 <= 1
 c130: x_23_31 + x_11_23 - x_11_31 <= 1
 c131: x_19_20 - x_12_19 + x_12_20 <= 1
 c132: x_26_28 + x_26_30 - x_28_30 <= 1
 c133: x_12_29 - x_12_31 + x_29_31 <= 1
 c134: x_18_21 - x_13_18 + x_13_21 <= 1
 c135: x_7_13 + x_7_19 - x_13_19 <= 1
 c136: - x_5_25 + x_5_26 + x_25_26 <= 1
 c137: x_6_8 - x_6_14 + x_8_14 <= 1
 c138: x_22_23 - x_22_31 + x_23_31 <= 1
 c139: x_16_24 + x_24_31 + x_14_16 - x_14_31 <= 2
 c140: x_0_3 - x_0_10 + x_3_10 <= 1
 c141: x_0_11 - x_0_16 + x_11_16 <= 1
 c142: - x_1_7 + x_1_9 + x_7_9 <= 1
 c143: - x_17_19 + x_14_17 + x_14_19 <= 1
 c144: - x_2_8 + x_2_18 + x_8_18 <= 1
 c145: x_10_12 - x_10_16 + x_12_16 <= 1
 c146: - x_11_12 + x_11_14 + x_12_14 <= 1
 c147: x_16_18 + x_16_20 + x_3_18 - x_3_20 <= 2
 c148: x_25_28 + x_25_31 - x_28_31 <= 1
 c149: x_5_7 - x_5_8 + x_7_8 <= 1
 c150: x_16_20 + x_14_16 - x_14_20 <= 1
 c151: x_22_23 - x_22_28 + x_23_28 <= 1
 c152: x_12_15 + x_12_28 - x_15_28 <= 1
 c153: - x_1_8 + x_1_14 + x_8_14 <= 1
 c154: - x_1_11 + x_1_14 + x_11_14 <= 1
 c155: x_8_9 + x_8_15 - x_9_15 <= 1
 c156: x_16_17 + x_16_24 - x_17_30 + x_24_30 <= 2
 c157: x_9_26 - x_9_30 + x_26_30 <= 1
 c158: x_3_10 + x_3_12 - x_10_12 <= 1
 c159: x_3_10 + x_3_12 - x_10_20 + x_12_20 <= 2
 c160: x_3_12 - x_3_20 + x_12_20 <= 1
 c161: x_3_12 - x_3_22 + x_12_22 <= 1
 c162: x_25_30 + x_11_25 - x_11_30 <= 1
 c163: x_22_23 - x_22_30 + x_23_30 <= 1
 c164: - x_8_15 + x_8_18 + x_15_18 <= 1
 c165: - x_2_5 + x_2_10 + x_5_10 <= 1
 c166: - x_2_8 + x_2_9 + x_8_9 <= 1
 c167: - x_18_19 + x_14_18 + x_14_19 <= 1
 c168: - x_18_22 + x_18_26 + x_22_26 <= 1
 c169: x_2_9 - x_2_24 + x_22_24 + x_9_22 <= 2
 c170: - x_3_9 + x_3_10 + x_9_10 <= 1
 c171: x_1_4 + x_1_31 - x_4_26 + x_26_31 <= 2
 c172: x_0_5 + x_0_11 - x_5_21 + x_11_21 <= 2
 c173: x_16_21 - x_15_16 + x_15_21 <= 1
 c174: - x_1_6 + x_1_9 + x_6_9 <= 1
 c175: x_1_8 - x_1_11 + x_8_11 <= 1
 c176: x_2_3 - x_2_8 + x_3_8 <= 1
 c177: - x_10_27 + x_10_31 + x_27_31 <= 1
 c178: - x_4_6 + x_4_7 + x_6_13 + x_7_13 <= 2
 c179: x_4_7 - x_4_8 + x_7_8 <= 1
 c180: x_14_15 + x_14_19 - x_15_19 <= 1
 c181: - x_0_23 + x_0_30 + x_23_30 <= 1
 c182: x_2_4 - x_2_5 + x_4_5 <= 1
 c183: x_20_21 - x_11_20 + x_11_21 <= 1
 c184: x_16_19 + x_16_23 - x_19_25 + x_23_25 <= 2
 c185: - x_5_8 + x_5_12 + x_8_9 + x_9_12 <= 2
 c186: x_16_21 + x_16_22 - x_21_22 <= 1
 c187: x_13_15 - x_13_23 + x_15_23 <= 1
 c188: x_16_27 + x_5_12 - x_5_27 + x_12_16 <= 2
 c189: x_16_19 + x_14_16 - x_14_19 <= 1
 c190: x_17_18 - x_3_17 + x_3_18 <= 1
 c191: - x_19_25 + x_11_19 + x_11_25 <= 1
 c192: - x_2_7 + x_2_9 + x_7_9 <= 1
 c193: x_0_10 + x_0_23 + x_23_27 - x_10_27 <= 2
 c194: x_16_22 - x_1_13 + x_1_22 + x_13_16 <= 2
 c195: - x_2_7 + x_2_17 + x_7_13 + x_13_17 <= 2
 c196: x_10_12 - x_10_13 + x_12_13 <= 1
 c197: x_16_18 - x_15_16 + x_15_18 <= 1
 c198: x_16_17 + x_16_23 - x_17_23 <= 1
 c199: - x_2_7 + x_2_10 + x_7_10 <= 1
 c200: x_7_10 + x_7_19 - x_10_19 <= 1
 c201: x_7_10 + x_7_27 - x_10_27 <= 1
 c202: x_5_7 - x_5_13 + x_7_13 <= 1
 c203: x_16_21 + x_5_7 - x_5_21 + x_7_16 <= 2
 c204: x_8_10 + x_8_18 - x_10_18 <= 1
 c205: x_12_15 + x_12_20 - x_15_20 <= 1
Bounds
 0 <= x_0_1 <= 1
 0 <= x_0_2 <= 1
 0 <= x_0_3 <= 1
 0 <= x_0_4 <= 1
 0 <= x_0_5 <= 1
 0 <= x_0_7 <= 1
 0 <= x_0_8 <= 1
 0 <= x_0_9 <= 1
 0 <= x_0_10 <= 1
 0 <= x_0_11 <= 1
 0 <= x_0_13 <= 1
 0 <= x_0_15 <= 1
 0 <= x_0_16 <= 1
 0 <= x_16_17 <= 1
 0 <= x_16_18 <= 1
 0 <= x_16_19 <= 1
 0 <= x_16_20 <= 1
 0 <= x_16_21 <= 1
 0 <= x_16_22 <= 1
 0 <= x_0_23 <= 1
 0 <= x_16_23 <= 1
 0 <= x_16_24 <= 1
 0 <= x_16_27 <= 1
 0 <= x_0_30 <= 1
 0 <= x_0_31 <= 1
 0 <= x_1_2 <= 1
 0 <= x_1_3 <= 1
 0 <= x_1_4 <= 1
 0 <= x_1_5 <= 1
 0 <= x_1_6 <= 1
 0 <= x_1_7 <= 1
 0 <= x_1_8 <= 1
 0 <= x_1_9 <= 1
 0 <= x_1_11 <= 1
 0 <= x_1_13 <= 1
 0 <= x_1_14 <= 1
 0 <= x_17_18 <= 1
 0 <= x_17_19 <= 1
 0 <= x_17_21 <= 1
 0 <= x_1_22 <= 1
 0 <= x_17_22 <= 1
 0 <= x_17_23 <= 1
 0 <= x_17_30 <= 1
 0 <= x_1_31 <= 1
 0 <= x_2_3 <= 1
 0 <= x_2_4 <= 1
 0 <= x_2_5 <= 1
 0 <= x_2_6 <= 1
 0 <= x_2_7 <= 1
 0 <= x_2_8 <= 1
 0 <= x_2_9 <= 1
 0 <= x_2_10 <= 1
 0 <= x_2_17 <= 1
 0 <= x_2_18 <= 1
 0 <= x_2_19 <= 1
 0 <= x_18_19 <= 1
 0 <= x_18_21 <= 1
 0 <= x_18_22 <= 1
 0 <= x_2_24 <= 1
 0 <= x_18_25 <= 1
 0 <= x_18_26 <= 1
 0 <= x_2_27 <= 1
 0 <= x_2_29 <= 1
 0 <= x_18_29 <= 1
 0 <= x_2_31 <= 1
 0 <= x_18_31 <= 1
 0 <= x_3_4 <= 1
 0 <= x_3_6 <= 1
 0 <= x_3_8 <= 1
 0 <= x_3_9 <= 1
 0 <= x_3_10 <= 1
 0 <= x_3_11 <= 1
 0 <= x_3_12 <= 1
 0 <= x_3_14 <= 1
 0 <= x_3_15 <= 1
 0 <= x_3_17 <= 1
 0 <= x_3_18 <= 1
 0 <= x_3_20 <= 1
 0 <= x_19_20 <= 1
 0 <= x_19_21 <= 1
 0 <= x_3_22 <= 1
 0 <= x_19_25 <= 1
 0 <= x_19_28 <= 1
 0 <= x_4_5 <= 1
 0 <= x_4_6 <= 1
 0 <= x_4_7 <= 1
 0 <= x_4_8 <= 1
 0 <= x_4_9 <= 1
 0 <= x_4_10 <= 1
 0 <= x_4_13 <= 1
 0 <= x_4_14 <= 1
 0 <= x_4_21 <= 1
 0 <= x_20_21 <= 1
 0 <= x_4_26 <= 1
 0 <= x_20_27 <= 1
 0 <= x_4_28 <= 1
 0 <= x_20_28 <= 1
 0 <= x_5_6 <= 1
 0 <= x_5_7 <= 1
 0 <= x_5_8 <= 1
 0 <= x_5_9 <= 1
 0 <= x_5_10 <= 1
 0 <= x_5_12 <= 1
 0 <= x_5_13 <= 1
 0 <= x_5_21 <= 1
 0 <= x_21_22 <= 1
 0 <= x_5_25 <= 1
 0 <= x_5_26 <= 1
 0 <= x_21_26 <= 1
 0 <= x_5_27 <= 1
 0 <= x_21_28 <= 1
 0 <= x_21_29 <= 1
 0 <= x_6_7 <= 1
 0 <= x_6_8 <= 1
 0 <= x_6_9 <= 1
 0 <= x_6_13 <= 1
 0 <= x_6_14 <= 1
 0 <= x_6_18 <= 1
 0 <= x_6_19 <= 1
 0 <= x_22_23 <= 1
 0 <= x_22_24 <= 1
 0 <= x_6_25 <= 1
 0 <= x_22_26 <= 1
 0 <= x_22_27 <= 1
 0 <= x_22_28 <= 1
 0 <= x_22_29 <= 1
 0 <= x_22_30 <= 1
 0 <= x_22_31 <= 1
 0 <= x_7_8 <= 1
 0 <= x_7_9 <= 1
 0 <= x_7_10 <= 1
 0 <= x_7_13 <= 1
 0 <= x_7_16 <= 1
 0 <= x_7_19 <= 1
 0 <= x_23_24 <= 1
 0 <= x_23_25 <= 1
 0 <= x_23_26 <= 1
 0 <= x_7_27 <= 1
 0 <= x_23_27 <= 1
 0 <= x_23_28 <= 1
 0 <= x_23_29 <= 1
 0 <= x_23_30 <= 1
 0 <= x_23_31 <= 1
 0 <= x_8_9 <= 1
 0 <= x_8_10 <= 1
 0 <= x_8_11 <= 1
 0 <= x_8_14 <= 1
 0 <= x_8_15 <= 1
 0 <= x_8_18 <= 1
 0 <= x_8_21 <= 1
 0 <= x_8_25 <= 1
 0 <= x_24_25 <= 1
 0 <= x_8_26 <= 1
 0 <= x_24_26 <= 1
 0 <= x_24_27 <= 1
 0 <= x_8_29 <= 1
 0 <= x_24_29 <= 1
 0 <= x_8_30 <= 1
 0 <= x_24_30 <= 1
 0 <= x_24_31 <= 1
 0 <= x_9_10 <= 1
 0 <= x_9_12 <= 1
 0 <= x_9_15 <= 1
 0 <= x_9_22 <= 1
 0 <= x_9_26 <= 1
 0 <= x_25_26 <= 1
 0 <= x_25_27 <= 1
 0 <= x_25_28 <= 1
 0 <= x_25_29 <= 1
 0 <= x_9_30 <= 1
 0 <= x_25_30 <= 1
 0 <= x_25_31 <= 1
 0 <= x_10_12 <= 1
 0 <= x_10_13 <= 1
 0 <= x_10_16 <= 1
 0 <= x_10_18 <= 1
 0 <= x_10_19 <= 1
 0 <= x_10_20 <= 1
 0 <= x_10_26 <= 1
 0 <= x_10_27 <= 1
 0 <= x_26_28 <= 1
 0 <= x_10_29 <= 1
 0 <= x_26_29 <= 1
 0 <= x_10_30 <= 1
 0 <= x_26_30 <= 1
 0 <= x_10_31 <= 1
 0 <= x_26_31 <= 1
 0 <= x_11_12 <= 1
 0 <= x_11_13 <= 1
 0 <= x_11_14 <= 1
 0 <= x_11_15 <= 1
 0 <= x_11_16 <= 1
 0 <= x_11_18 <= 1
 0 <= x_11_19 <= 1
 0 <= x_11_20 <= 1
 0 <= x_11_21 <= 1
 0 <= x_11_22 <= 1
 0 <= x_11_23 <= 1
 0 <= x_11_25 <= 1
 0 <= x_11_27 <= 1
 0 <= x_27_29 <= 1
 0 <= x_11_30 <= 1
 0 <= x_27_30 <= 1
 0 <= x_11_31 <= 1
 0 <= x_27_31 <= 1
 0 <= x_12_13 <= 1
 0 <= x_12_14 <= 1
 0 <= x_12_15 <= 1
 0 <= x_12_16 <= 1
 0 <= x_12_17 <= 1
 0 <= x_12_18 <= 1
 0 <= x_12_19 <= 1
 0 <= x_12_20 <= 1
 0 <= x_12_22 <= 1
 0 <= x_12_26 <= 1
 0 <= x_12_28 <= 1
 0 <= x_12_29 <= 1
 0 <= x_28_29 <= 1
 0 <= x_28_30 <= 1
 0 <= x_12_31 <= 1
 0 <= x_28_31 <= 1
 0 <= x_13_15 <= 1
 0 <= x_13_16 <= 1
 0 <= x_13_17 <= 1
 0 <= x_13_18 <= 1
 0 <= x_13_19 <= 1
 0 <= x_13_21 <= 1
 0 <= x_13_23 <= 1
 0 <= x_13_28 <= 1
 0 <= x_29_30 <= 1
 0 <= x_29_31 <= 1
 0 <= x_14_15 <= 1
 0 <= x_14_16 <= 1
 0 <= x_14_17 <= 1
 0 <= x_14_18 <= 1
 0 <= x_14_19 <= 1
 0 <= x_14_20 <= 1
 0 <= x_14_21 <= 1
 0 <= x_14_31 <= 1
 0 <= x_15_16 <= 1
 0 <= x_15_17 <= 1
 0 <= x_15_18 <= 1
 0 <= x_15_19 <= 1
 0 <= x_15_20 <= 1
 0 <= x_15_21 <= 1
 0 <= x_15_23 <= 1
 0 <= x_15_28 <= 1
End
